num_bands   =  46
dis_win_min  = -12 #-2.095307
dis_win_max  = 10 #11.904693
num_wann   = 14
kmesh_tol   = 1e-06
num_iter   = 100

begin projections
V:d
O:p
end projections

begin unit_cell_cart
     3.8465200     0.0000000     0.0000000
     0.0000000     3.8465200     0.0000000
     0.0000000     0.0000000     3.8465200
end unit_cell_cart

begin atoms_cart
Sr       0.0000000     0.0000000     0.0000000
V        1.9232600     1.9232600     1.9232600
O        1.9232600     1.9232600     0.0000000
O        1.9232600     0.0000000     1.9232600
O        0.0000000     1.9232600     1.9232600
end atoms_cart

mp_grid =     8     8     8

begin kpoints
      0.000000000000      0.000000000000      0.000000000000
      0.125000000000      0.000000000000      0.000000000000
      0.250000000000      0.000000000000      0.000000000000
      0.375000000000      0.000000000000      0.000000000000
      0.500000000000      0.000000000000      0.000000000000
      0.125000000000      0.125000000000      0.000000000000
      0.250000000000      0.125000000000      0.000000000000
      0.375000000000      0.125000000000      0.000000000000
      0.500000000000      0.125000000000      0.000000000000
      0.250000000000      0.250000000000      0.000000000000
      0.375000000000      0.250000000000      0.000000000000
      0.500000000000      0.250000000000      0.000000000000
      0.375000000000      0.375000000000      0.000000000000
      0.500000000000      0.375000000000      0.000000000000
      0.500000000000      0.500000000000      0.000000000000
      0.125000000000      0.125000000000      0.125000000000
      0.250000000000      0.125000000000      0.125000000000
      0.375000000000      0.125000000000      0.125000000000
      0.500000000000      0.125000000000      0.125000000000
      0.250000000000      0.250000000000      0.125000000000
      0.375000000000      0.250000000000      0.125000000000
      0.500000000000      0.250000000000      0.125000000000
      0.375000000000      0.375000000000      0.125000000000
      0.500000000000      0.375000000000      0.125000000000
      0.500000000000      0.500000000000      0.125000000000
      0.250000000000      0.250000000000      0.250000000000
      0.375000000000      0.250000000000      0.250000000000
      0.500000000000      0.250000000000      0.250000000000
      0.375000000000      0.375000000000      0.250000000000
      0.500000000000      0.375000000000      0.250000000000
      0.500000000000      0.500000000000      0.250000000000
      0.375000000000      0.375000000000      0.375000000000
      0.500000000000      0.375000000000      0.375000000000
      0.500000000000      0.500000000000      0.375000000000
      0.500000000000      0.500000000000      0.500000000000
     -0.125000000000      0.000000000000      0.000000000000
      0.000000000000      0.125000000000      0.000000000000
      0.000000000000     -0.125000000000      0.000000000000
      0.000000000000      0.000000000000      0.125000000000
      0.000000000000      0.000000000000     -0.125000000000
     -0.250000000000      0.000000000000      0.000000000000
      0.000000000000      0.250000000000      0.000000000000
      0.000000000000     -0.250000000000      0.000000000000
      0.000000000000      0.000000000000      0.250000000000
      0.000000000000      0.000000000000     -0.250000000000
     -0.375000000000      0.000000000000      0.000000000000
      0.000000000000      0.375000000000      0.000000000000
      0.000000000000     -0.375000000000      0.000000000000
      0.000000000000      0.000000000000      0.375000000000
      0.000000000000      0.000000000000     -0.375000000000
      0.000000000000      0.500000000000      0.000000000000
      0.000000000000      0.000000000000      0.500000000000
     -0.125000000000     -0.125000000000      0.000000000000
      0.000000000000      0.125000000000      0.125000000000
      0.000000000000     -0.125000000000     -0.125000000000
      0.125000000000      0.000000000000      0.125000000000
     -0.125000000000      0.000000000000     -0.125000000000
     -0.125000000000      0.125000000000      0.000000000000
      0.125000000000     -0.125000000000      0.000000000000
     -0.125000000000      0.000000000000      0.125000000000
      0.125000000000      0.000000000000     -0.125000000000
      0.000000000000     -0.125000000000      0.125000000000
      0.000000000000      0.125000000000     -0.125000000000
     -0.250000000000     -0.125000000000      0.000000000000
      0.000000000000      0.250000000000      0.125000000000
      0.000000000000     -0.250000000000     -0.125000000000
      0.125000000000      0.000000000000      0.250000000000
     -0.125000000000      0.000000000000     -0.250000000000
     -0.125000000000      0.250000000000      0.000000000000
      0.125000000000     -0.250000000000      0.000000000000
     -0.250000000000      0.000000000000      0.125000000000
      0.250000000000      0.000000000000     -0.125000000000
      0.000000000000      0.125000000000      0.250000000000
      0.000000000000     -0.125000000000     -0.250000000000
      0.000000000000     -0.250000000000      0.125000000000
      0.000000000000      0.250000000000     -0.125000000000
     -0.125000000000      0.000000000000      0.250000000000
      0.125000000000      0.000000000000     -0.250000000000
      0.250000000000      0.000000000000      0.125000000000
     -0.250000000000      0.000000000000     -0.125000000000
      0.000000000000     -0.125000000000      0.250000000000
      0.000000000000      0.125000000000     -0.250000000000
      0.250000000000     -0.125000000000      0.000000000000
     -0.250000000000      0.125000000000      0.000000000000
      0.125000000000      0.250000000000      0.000000000000
     -0.125000000000     -0.250000000000      0.000000000000
     -0.375000000000     -0.125000000000      0.000000000000
      0.000000000000      0.375000000000      0.125000000000
      0.000000000000     -0.375000000000     -0.125000000000
      0.125000000000      0.000000000000      0.375000000000
     -0.125000000000      0.000000000000     -0.375000000000
     -0.125000000000      0.375000000000      0.000000000000
      0.125000000000     -0.375000000000      0.000000000000
     -0.375000000000      0.000000000000      0.125000000000
      0.375000000000      0.000000000000     -0.125000000000
      0.000000000000      0.125000000000      0.375000000000
      0.000000000000     -0.125000000000     -0.375000000000
      0.000000000000     -0.375000000000      0.125000000000
      0.000000000000      0.375000000000     -0.125000000000
     -0.125000000000      0.000000000000      0.375000000000
      0.125000000000      0.000000000000     -0.375000000000
      0.375000000000      0.000000000000      0.125000000000
     -0.375000000000      0.000000000000     -0.125000000000
      0.000000000000     -0.125000000000      0.375000000000
      0.000000000000      0.125000000000     -0.375000000000
      0.375000000000     -0.125000000000      0.000000000000
     -0.375000000000      0.125000000000      0.000000000000
      0.125000000000      0.375000000000      0.000000000000
     -0.125000000000     -0.375000000000      0.000000000000
     -0.500000000000     -0.125000000000      0.000000000000
      0.000000000000      0.500000000000      0.125000000000
      0.000000000000     -0.500000000000     -0.125000000000
      0.125000000000      0.000000000000      0.500000000000
     -0.125000000000      0.000000000000     -0.500000000000
     -0.125000000000      0.500000000000      0.000000000000
      0.125000000000     -0.500000000000      0.000000000000
     -0.500000000000      0.000000000000      0.125000000000
      0.500000000000      0.000000000000     -0.125000000000
      0.000000000000      0.125000000000      0.500000000000
      0.000000000000     -0.125000000000     -0.500000000000
     -0.250000000000     -0.250000000000      0.000000000000
      0.000000000000      0.250000000000      0.250000000000
      0.000000000000     -0.250000000000     -0.250000000000
      0.250000000000      0.000000000000      0.250000000000
     -0.250000000000      0.000000000000     -0.250000000000
     -0.250000000000      0.250000000000      0.000000000000
      0.250000000000     -0.250000000000      0.000000000000
     -0.250000000000      0.000000000000      0.250000000000
      0.250000000000      0.000000000000     -0.250000000000
      0.000000000000     -0.250000000000      0.250000000000
      0.000000000000      0.250000000000     -0.250000000000
     -0.375000000000     -0.250000000000      0.000000000000
      0.000000000000      0.375000000000      0.250000000000
      0.000000000000     -0.375000000000     -0.250000000000
      0.250000000000      0.000000000000      0.375000000000
     -0.250000000000      0.000000000000     -0.375000000000
     -0.250000000000      0.375000000000      0.000000000000
      0.250000000000     -0.375000000000      0.000000000000
     -0.375000000000      0.000000000000      0.250000000000
      0.375000000000      0.000000000000     -0.250000000000
      0.000000000000      0.250000000000      0.375000000000
      0.000000000000     -0.250000000000     -0.375000000000
      0.000000000000     -0.375000000000      0.250000000000
      0.000000000000      0.375000000000     -0.250000000000
     -0.250000000000      0.000000000000      0.375000000000
      0.250000000000      0.000000000000     -0.375000000000
      0.375000000000      0.000000000000      0.250000000000
     -0.375000000000      0.000000000000     -0.250000000000
      0.000000000000     -0.250000000000      0.375000000000
      0.000000000000      0.250000000000     -0.375000000000
      0.375000000000     -0.250000000000      0.000000000000
     -0.375000000000      0.250000000000      0.000000000000
      0.250000000000      0.375000000000      0.000000000000
     -0.250000000000     -0.375000000000      0.000000000000
     -0.500000000000     -0.250000000000      0.000000000000
      0.000000000000      0.500000000000      0.250000000000
      0.000000000000     -0.500000000000     -0.250000000000
      0.250000000000      0.000000000000      0.500000000000
     -0.250000000000      0.000000000000     -0.500000000000
     -0.250000000000      0.500000000000      0.000000000000
      0.250000000000     -0.500000000000      0.000000000000
     -0.500000000000      0.000000000000      0.250000000000
      0.500000000000      0.000000000000     -0.250000000000
      0.000000000000      0.250000000000      0.500000000000
      0.000000000000     -0.250000000000     -0.500000000000
     -0.375000000000     -0.375000000000      0.000000000000
      0.000000000000      0.375000000000      0.375000000000
      0.000000000000     -0.375000000000     -0.375000000000
      0.375000000000      0.000000000000      0.375000000000
     -0.375000000000      0.000000000000     -0.375000000000
     -0.375000000000      0.375000000000      0.000000000000
      0.375000000000     -0.375000000000      0.000000000000
     -0.375000000000      0.000000000000      0.375000000000
      0.375000000000      0.000000000000     -0.375000000000
      0.000000000000     -0.375000000000      0.375000000000
      0.000000000000      0.375000000000     -0.375000000000
     -0.500000000000     -0.375000000000      0.000000000000
      0.000000000000      0.500000000000      0.375000000000
      0.000000000000     -0.500000000000     -0.375000000000
      0.375000000000      0.000000000000      0.500000000000
     -0.375000000000      0.000000000000     -0.500000000000
     -0.375000000000      0.500000000000      0.000000000000
      0.375000000000     -0.500000000000      0.000000000000
     -0.500000000000      0.000000000000      0.375000000000
      0.500000000000      0.000000000000     -0.375000000000
      0.000000000000      0.375000000000      0.500000000000
      0.000000000000     -0.375000000000     -0.500000000000
      0.000000000000      0.500000000000      0.500000000000
      0.500000000000      0.000000000000      0.500000000000
     -0.125000000000     -0.125000000000     -0.125000000000
     -0.125000000000      0.125000000000      0.125000000000
      0.125000000000     -0.125000000000     -0.125000000000
     -0.125000000000     -0.125000000000      0.125000000000
      0.125000000000      0.125000000000     -0.125000000000
      0.125000000000     -0.125000000000      0.125000000000
     -0.125000000000      0.125000000000     -0.125000000000
     -0.250000000000     -0.125000000000     -0.125000000000
      0.125000000000      0.250000000000      0.125000000000
     -0.125000000000     -0.250000000000     -0.125000000000
      0.125000000000      0.125000000000      0.250000000000
     -0.125000000000     -0.125000000000     -0.250000000000
     -0.125000000000      0.250000000000      0.125000000000
      0.125000000000     -0.250000000000     -0.125000000000
     -0.250000000000      0.125000000000      0.125000000000
      0.250000000000     -0.125000000000     -0.125000000000
     -0.125000000000      0.125000000000      0.250000000000
      0.125000000000     -0.125000000000     -0.250000000000
     -0.250000000000     -0.125000000000      0.125000000000
      0.250000000000      0.125000000000     -0.125000000000
     -0.125000000000     -0.250000000000      0.125000000000
      0.125000000000      0.250000000000     -0.125000000000
     -0.125000000000     -0.125000000000      0.250000000000
      0.125000000000      0.125000000000     -0.250000000000
      0.125000000000     -0.250000000000      0.125000000000
     -0.125000000000      0.250000000000     -0.125000000000
      0.250000000000     -0.125000000000      0.125000000000
     -0.250000000000      0.125000000000     -0.125000000000
      0.125000000000     -0.125000000000      0.250000000000
     -0.125000000000      0.125000000000     -0.250000000000
     -0.375000000000     -0.125000000000     -0.125000000000
      0.125000000000      0.375000000000      0.125000000000
     -0.125000000000     -0.375000000000     -0.125000000000
      0.125000000000      0.125000000000      0.375000000000
     -0.125000000000     -0.125000000000     -0.375000000000
     -0.125000000000      0.375000000000      0.125000000000
      0.125000000000     -0.375000000000     -0.125000000000
     -0.375000000000      0.125000000000      0.125000000000
      0.375000000000     -0.125000000000     -0.125000000000
     -0.125000000000      0.125000000000      0.375000000000
      0.125000000000     -0.125000000000     -0.375000000000
     -0.375000000000     -0.125000000000      0.125000000000
      0.375000000000      0.125000000000     -0.125000000000
     -0.125000000000     -0.375000000000      0.125000000000
      0.125000000000      0.375000000000     -0.125000000000
     -0.125000000000     -0.125000000000      0.375000000000
      0.125000000000      0.125000000000     -0.375000000000
      0.125000000000     -0.375000000000      0.125000000000
     -0.125000000000      0.375000000000     -0.125000000000
      0.375000000000     -0.125000000000      0.125000000000
     -0.375000000000      0.125000000000     -0.125000000000
      0.125000000000     -0.125000000000      0.375000000000
     -0.125000000000      0.125000000000     -0.375000000000
     -0.500000000000     -0.125000000000     -0.125000000000
      0.125000000000      0.500000000000      0.125000000000
     -0.125000000000     -0.500000000000     -0.125000000000
      0.125000000000      0.125000000000      0.500000000000
     -0.125000000000     -0.125000000000     -0.500000000000
     -0.125000000000      0.500000000000      0.125000000000
      0.125000000000     -0.500000000000     -0.125000000000
     -0.125000000000      0.125000000000      0.500000000000
      0.125000000000     -0.125000000000     -0.500000000000
     -0.500000000000     -0.125000000000      0.125000000000
      0.500000000000      0.125000000000     -0.125000000000
     -0.250000000000     -0.250000000000     -0.125000000000
      0.125000000000      0.250000000000      0.250000000000
     -0.125000000000     -0.250000000000     -0.250000000000
      0.250000000000      0.125000000000      0.250000000000
     -0.250000000000     -0.125000000000     -0.250000000000
     -0.250000000000      0.250000000000      0.125000000000
      0.250000000000     -0.250000000000     -0.125000000000
     -0.250000000000      0.125000000000      0.250000000000
      0.250000000000     -0.125000000000     -0.250000000000
     -0.125000000000      0.250000000000      0.250000000000
      0.125000000000     -0.250000000000     -0.250000000000
     -0.250000000000     -0.250000000000      0.125000000000
      0.250000000000      0.250000000000     -0.125000000000
     -0.125000000000     -0.250000000000      0.250000000000
      0.125000000000      0.250000000000     -0.250000000000
     -0.250000000000     -0.125000000000      0.250000000000
      0.250000000000      0.125000000000     -0.250000000000
      0.250000000000     -0.250000000000      0.125000000000
     -0.250000000000      0.250000000000     -0.125000000000
      0.250000000000     -0.125000000000      0.250000000000
     -0.250000000000      0.125000000000     -0.250000000000
      0.125000000000     -0.250000000000      0.250000000000
     -0.125000000000      0.250000000000     -0.250000000000
     -0.375000000000     -0.250000000000     -0.125000000000
      0.125000000000      0.375000000000      0.250000000000
     -0.125000000000     -0.375000000000     -0.250000000000
      0.250000000000      0.125000000000      0.375000000000
     -0.250000000000     -0.125000000000     -0.375000000000
     -0.250000000000      0.375000000000      0.125000000000
      0.250000000000     -0.375000000000     -0.125000000000
     -0.375000000000      0.125000000000      0.250000000000
      0.375000000000     -0.125000000000     -0.250000000000
     -0.125000000000      0.250000000000      0.375000000000
      0.125000000000     -0.250000000000     -0.375000000000
     -0.375000000000     -0.250000000000      0.125000000000
      0.375000000000      0.250000000000     -0.125000000000
     -0.125000000000     -0.375000000000      0.250000000000
      0.125000000000      0.375000000000     -0.250000000000
     -0.250000000000     -0.125000000000      0.375000000000
      0.250000000000      0.125000000000     -0.375000000000
      0.250000000000     -0.375000000000      0.125000000000
     -0.250000000000      0.375000000000     -0.125000000000
      0.375000000000     -0.125000000000      0.250000000000
     -0.375000000000      0.125000000000     -0.250000000000
      0.125000000000     -0.250000000000      0.375000000000
     -0.125000000000      0.250000000000     -0.375000000000
      0.125000000000     -0.375000000000     -0.250000000000
     -0.125000000000      0.375000000000      0.250000000000
      0.250000000000     -0.125000000000     -0.375000000000
     -0.250000000000      0.125000000000      0.375000000000
      0.375000000000     -0.250000000000     -0.125000000000
     -0.375000000000      0.250000000000      0.125000000000
      0.125000000000      0.250000000000     -0.375000000000
     -0.125000000000     -0.250000000000      0.375000000000
      0.250000000000      0.375000000000     -0.125000000000
     -0.250000000000     -0.375000000000      0.125000000000
      0.375000000000      0.125000000000     -0.250000000000
     -0.375000000000     -0.125000000000      0.250000000000
     -0.250000000000      0.125000000000     -0.375000000000
      0.250000000000     -0.125000000000      0.375000000000
     -0.375000000000      0.250000000000     -0.125000000000
      0.375000000000     -0.250000000000      0.125000000000
     -0.125000000000      0.375000000000     -0.250000000000
      0.125000000000     -0.375000000000      0.250000000000
     -0.375000000000     -0.125000000000     -0.250000000000
      0.375000000000      0.125000000000      0.250000000000
     -0.250000000000     -0.375000000000     -0.125000000000
      0.250000000000      0.375000000000      0.125000000000
     -0.125000000000     -0.250000000000     -0.375000000000
      0.125000000000      0.250000000000      0.375000000000
     -0.500000000000     -0.250000000000     -0.125000000000
      0.125000000000      0.500000000000      0.250000000000
     -0.125000000000     -0.500000000000     -0.250000000000
      0.250000000000      0.125000000000      0.500000000000
     -0.250000000000     -0.125000000000     -0.500000000000
     -0.250000000000      0.500000000000      0.125000000000
      0.250000000000     -0.500000000000     -0.125000000000
     -0.500000000000      0.125000000000      0.250000000000
      0.500000000000     -0.125000000000     -0.250000000000
     -0.125000000000      0.250000000000      0.500000000000
      0.125000000000     -0.250000000000     -0.500000000000
     -0.500000000000     -0.250000000000      0.125000000000
      0.500000000000      0.250000000000     -0.125000000000
     -0.125000000000     -0.500000000000      0.250000000000
      0.125000000000      0.500000000000     -0.250000000000
      0.250000000000     -0.500000000000      0.125000000000
     -0.250000000000      0.500000000000     -0.125000000000
      0.500000000000     -0.125000000000      0.250000000000
     -0.500000000000      0.125000000000     -0.250000000000
      0.250000000000     -0.125000000000     -0.500000000000
     -0.250000000000      0.125000000000      0.500000000000
      0.125000000000      0.250000000000     -0.500000000000
     -0.125000000000     -0.250000000000      0.500000000000
     -0.375000000000     -0.375000000000     -0.125000000000
      0.125000000000      0.375000000000      0.375000000000
     -0.125000000000     -0.375000000000     -0.375000000000
      0.375000000000      0.125000000000      0.375000000000
     -0.375000000000     -0.125000000000     -0.375000000000
     -0.375000000000      0.375000000000      0.125000000000
      0.375000000000     -0.375000000000     -0.125000000000
     -0.375000000000      0.125000000000      0.375000000000
      0.375000000000     -0.125000000000     -0.375000000000
     -0.125000000000      0.375000000000      0.375000000000
      0.125000000000     -0.375000000000     -0.375000000000
     -0.375000000000     -0.375000000000      0.125000000000
      0.375000000000      0.375000000000     -0.125000000000
     -0.125000000000     -0.375000000000      0.375000000000
      0.125000000000      0.375000000000     -0.375000000000
     -0.375000000000     -0.125000000000      0.375000000000
      0.375000000000      0.125000000000     -0.375000000000
      0.375000000000     -0.375000000000      0.125000000000
     -0.375000000000      0.375000000000     -0.125000000000
      0.375000000000     -0.125000000000      0.375000000000
     -0.375000000000      0.125000000000     -0.375000000000
      0.125000000000     -0.375000000000      0.375000000000
     -0.125000000000      0.375000000000     -0.375000000000
     -0.500000000000     -0.375000000000     -0.125000000000
      0.125000000000      0.500000000000      0.375000000000
     -0.125000000000     -0.500000000000     -0.375000000000
      0.375000000000      0.125000000000      0.500000000000
     -0.375000000000     -0.125000000000     -0.500000000000
     -0.375000000000      0.500000000000      0.125000000000
      0.375000000000     -0.500000000000     -0.125000000000
     -0.500000000000      0.125000000000      0.375000000000
      0.500000000000     -0.125000000000     -0.375000000000
     -0.125000000000      0.375000000000      0.500000000000
      0.125000000000     -0.375000000000     -0.500000000000
     -0.500000000000     -0.375000000000      0.125000000000
      0.500000000000      0.375000000000     -0.125000000000
     -0.125000000000     -0.500000000000      0.375000000000
      0.125000000000      0.500000000000     -0.375000000000
      0.375000000000     -0.500000000000      0.125000000000
     -0.375000000000      0.500000000000     -0.125000000000
      0.500000000000     -0.125000000000      0.375000000000
     -0.500000000000      0.125000000000     -0.375000000000
      0.375000000000     -0.125000000000     -0.500000000000
     -0.375000000000      0.125000000000      0.500000000000
      0.125000000000      0.375000000000     -0.500000000000
     -0.125000000000     -0.375000000000      0.500000000000
     -0.500000000000     -0.500000000000     -0.125000000000
      0.125000000000      0.500000000000      0.500000000000
     -0.125000000000     -0.500000000000     -0.500000000000
      0.500000000000      0.125000000000      0.500000000000
     -0.500000000000     -0.125000000000     -0.500000000000
     -0.250000000000     -0.250000000000     -0.250000000000
     -0.250000000000      0.250000000000      0.250000000000
      0.250000000000     -0.250000000000     -0.250000000000
     -0.250000000000     -0.250000000000      0.250000000000
      0.250000000000      0.250000000000     -0.250000000000
      0.250000000000     -0.250000000000      0.250000000000
     -0.250000000000      0.250000000000     -0.250000000000
     -0.375000000000     -0.250000000000     -0.250000000000
      0.250000000000      0.375000000000      0.250000000000
     -0.250000000000     -0.375000000000     -0.250000000000
      0.250000000000      0.250000000000      0.375000000000
     -0.250000000000     -0.250000000000     -0.375000000000
     -0.250000000000      0.375000000000      0.250000000000
      0.250000000000     -0.375000000000     -0.250000000000
     -0.375000000000      0.250000000000      0.250000000000
      0.375000000000     -0.250000000000     -0.250000000000
     -0.250000000000      0.250000000000      0.375000000000
      0.250000000000     -0.250000000000     -0.375000000000
     -0.375000000000     -0.250000000000      0.250000000000
      0.375000000000      0.250000000000     -0.250000000000
     -0.250000000000     -0.375000000000      0.250000000000
      0.250000000000      0.375000000000     -0.250000000000
     -0.250000000000     -0.250000000000      0.375000000000
      0.250000000000      0.250000000000     -0.375000000000
      0.250000000000     -0.375000000000      0.250000000000
     -0.250000000000      0.375000000000     -0.250000000000
      0.375000000000     -0.250000000000      0.250000000000
     -0.375000000000      0.250000000000     -0.250000000000
      0.250000000000     -0.250000000000      0.375000000000
     -0.250000000000      0.250000000000     -0.375000000000
     -0.500000000000     -0.250000000000     -0.250000000000
      0.250000000000      0.500000000000      0.250000000000
     -0.250000000000     -0.500000000000     -0.250000000000
      0.250000000000      0.250000000000      0.500000000000
     -0.250000000000     -0.250000000000     -0.500000000000
     -0.250000000000      0.500000000000      0.250000000000
      0.250000000000     -0.500000000000     -0.250000000000
     -0.250000000000      0.250000000000      0.500000000000
      0.250000000000     -0.250000000000     -0.500000000000
     -0.500000000000     -0.250000000000      0.250000000000
      0.500000000000      0.250000000000     -0.250000000000
     -0.375000000000     -0.375000000000     -0.250000000000
      0.250000000000      0.375000000000      0.375000000000
     -0.250000000000     -0.375000000000     -0.375000000000
      0.375000000000      0.250000000000      0.375000000000
     -0.375000000000     -0.250000000000     -0.375000000000
     -0.375000000000      0.375000000000      0.250000000000
      0.375000000000     -0.375000000000     -0.250000000000
     -0.375000000000      0.250000000000      0.375000000000
      0.375000000000     -0.250000000000     -0.375000000000
     -0.250000000000      0.375000000000      0.375000000000
      0.250000000000     -0.375000000000     -0.375000000000
     -0.375000000000     -0.375000000000      0.250000000000
      0.375000000000      0.375000000000     -0.250000000000
     -0.250000000000     -0.375000000000      0.375000000000
      0.250000000000      0.375000000000     -0.375000000000
     -0.375000000000     -0.250000000000      0.375000000000
      0.375000000000      0.250000000000     -0.375000000000
      0.375000000000     -0.375000000000      0.250000000000
     -0.375000000000      0.375000000000     -0.250000000000
      0.375000000000     -0.250000000000      0.375000000000
     -0.375000000000      0.250000000000     -0.375000000000
      0.250000000000     -0.375000000000      0.375000000000
     -0.250000000000      0.375000000000     -0.375000000000
     -0.500000000000     -0.375000000000     -0.250000000000
      0.250000000000      0.500000000000      0.375000000000
     -0.250000000000     -0.500000000000     -0.375000000000
      0.375000000000      0.250000000000      0.500000000000
     -0.375000000000     -0.250000000000     -0.500000000000
     -0.375000000000      0.500000000000      0.250000000000
      0.375000000000     -0.500000000000     -0.250000000000
     -0.500000000000      0.250000000000      0.375000000000
      0.500000000000     -0.250000000000     -0.375000000000
     -0.250000000000      0.375000000000      0.500000000000
      0.250000000000     -0.375000000000     -0.500000000000
     -0.500000000000     -0.375000000000      0.250000000000
      0.500000000000      0.375000000000     -0.250000000000
     -0.250000000000     -0.500000000000      0.375000000000
      0.250000000000      0.500000000000     -0.375000000000
      0.375000000000     -0.500000000000      0.250000000000
     -0.375000000000      0.500000000000     -0.250000000000
      0.500000000000     -0.250000000000      0.375000000000
     -0.500000000000      0.250000000000     -0.375000000000
      0.375000000000     -0.250000000000     -0.500000000000