coord.13.02
 0
Gamma point shift
 2 2 2 
 0 0 0

